RLT01
Position Depot: Center
Horizon for Depot: Large
Position of customers: Random
Distribution of the demand: Small
Width of time windows: Tight
Distribution of the service: Large

VEHICLE 
NUMBER 	 CAPACITY 
 5 	 	 77 
 
CUSTOMER
CUST NO. 	 XCOORD.  	 YCOORD. 	 DEMAND 	 READY TIME 	 DUE DATE 	 SERVICE TIME 
 0 	 	 500 	 	 500 	 	 0 	 	 0 	 	 3531 	 	 0 
  1 	 	 783 	 	 199 	 	 7 	 	 1362 	 	 1503 	 	 158 
  2 	 	 782 	 	 895 	 	 10 	 	 2447 	 	 2594 	 	 186 
  3 	 	 395 	 	 91 	 	 8 	 	 913 	 	 1088 	 	 143 
  4 	 	 932 	 	 182 	 	 9 	 	 2618 	 	 2697 	 	 130 
  5 	 	 74 	 	 791 	 	 8 	 	 1041 	 	 1227 	 	 138 
  6 	 	 942 	 	 994 	 	 7 	 	 3019 	 	 3163 	 	 152 
  7 	 	 467 	 	 373 	 	 7 	 	 1217 	 	 1368 	 	 160 
  8 	 	 523 	 	 17 	 	 7 	 	 457 	 	 584 	 	 121 
  9 	 	 309 	 	 580 	 	 6 	 	 2202 	 	 2290 	 	 121 
  10 	 	 468 	 	 660 	 	 10 	 	 581 	 	 665 	 	 120 
  11 	 	 81 	 	 832 	 	 9 	 	 984 	 	 1094 	 	 145 
  12 	 	 660 	 	 322 	 	 6 	 	 1049 	 	 1220 	 	 139 
  13 	 	 79 	 	 438 	 	 6 	 	 2182 	 	 2322 	 	 157 
  14 	 	 938 	 	 110 	 	 6 	 	 2738 	 	 2868 	 	 108 
  15 	 	 701 	 	 191 	 	 8 	 	 2160 	 	 2218 	 	 105 
  16 	 	 743 	 	 977 	 	 6 	 	 2589 	 	 2730 	 	 194 
  17 	 	 985 	 	 374 	 	 9 	 	 1366 	 	 1544 	 	 180 
  18 	 	 829 	 	 681 	 	 7 	 	 1361 	 	 1441 	 	 123 
  19 	 	 971 	 	 384 	 	 5 	 	 1057 	 	 1160 	 	 107 
  20 	 	 252 	 	 857 	 	 7 	 	 1242 	 	 1436 	 	 151 
  21 	 	 250 	 	 368 	 	 5 	 	 887 	 	 1011 	 	 189 
  22 	 	 582 	 	 6 	 	 6 	 	 466 	 	 550 	 	 128 
  23 	 	 377 	 	 518 	 	 7 	 	 530 	 	 621 	 	 129 
  24 	 	 77 	 	 318 	 	 9 	 	 2001 	 	 2181 	 	 169 
  25 	 	 614 	 	 925 	 	 9 	 	 3152 	 	 3312 	 	 156 
  26 	 	 594 	 	 524 	 	 8 	 	 658 	 	 839 	 	 145 
  27 	 	 200 	 	 443 	 	 5 	 	 1083 	 	 1185 	 	 129 
  28 	 	 781 	 	 145 	 	 6 	 	 3112 	 	 3215 	 	 102 
  29 	 	 167 	 	 497 	 	 7 	 	 722 	 	 784 	 	 200 
  30 	 	 368 	 	 84 	 	 9 	 	 920 	 	 1024 	 	 111 
  31 	 	 451 	 	 659 	 	 10 	 	 735 	 	 872 	 	 121 
  32 	 	 588 	 	 707 	 	 10 	 	 2868 	 	 2922 	 	 127 
  33 	 	 323 	 	 911 	 	 8 	 	 2231 	 	 2290 	 	 106 
  34 	 	 873 	 	 375 	 	 8 	 	 2220 	 	 2359 	 	 117 
  35 	 	 499 	 	 69 	 	 9 	 	 1207 	 	 1402 	 	 185 
  36 	 	 319 	 	 619 	 	 7 	 	 3112 	 	 3308 	 	 111 
  37 	 	 492 	 	 346 	 	 8 	 	 3451 	 	 3519 	 	 133 
  38 	 	 64 	 	 674 	 	 10 	 	 3399 	 	 3531 	 	 102 
  39 	 	 184 	 	 930 	 	 7 	 	 859 	 	 989 	 	 133 
  40 	 	 854 	 	 837 	 	 7 	 	 1167 	 	 1341 	 	 153 
  41 	 	 973 	 	 12 	 	 7 	 	 623 	 	 747 	 	 106 
  42 	 	 118 	 	 441 	 	 8 	 	 2457 	 	 2562 	 	 135 
  43 	 	 365 	 	 786 	 	 10 	 	 2848 	 	 3042 	 	 163 
  44 	 	 589 	 	 288 	 	 9 	 	 1001 	 	 1095 	 	 141 
  45 	 	 146 	 	 360 	 	 5 	 	 1555 	 	 1696 	 	 166 
  46 	 	 762 	 	 580 	 	 10 	 	 711 	 	 862 	 	 157 
  47 	 	 153 	 	 852 	 	 8 	 	 2802 	 	 2914 	 	 104 
  48 	 	 747 	 	 655 	 	 6 	 	 289 	 	 357 	 	 104 
  49 	 	 531 	 	 519 	 	 8 	 	 2247 	 	 2420 	 	 189 
  50 	 	 335 	 	 939 	 	 9 	 	 3209 	 	 3302 	 	 172 
 